Set parameter TSPort to value 51199
Set parameter TokenServer to value "open-license1.lanl.gov"
Set parameter TimeLimit to value 8192
Set parameter Threads to value 1
Gurobi Optimizer version 10.0.3 build v10.0.3rc0 (linux64)

CPU model: Intel(R) Xeon(R) CPU E5-2695 v4 @ 2.10GHz, instruction set [SSE2|AVX|AVX2]
Thread count: 36 physical cores, 72 logical processors, using up to 1 threads

Optimize a model with 0 rows, 3447 columns and 0 nonzeros
Model fingerprint: 0xed450e31
Model has 15846 quadratic objective terms
Variable types: 0 continuous, 3447 integer (3447 binary)
Coefficient statistics:
  Matrix range     [0e+00, 0e+00]
  Objective range  [2e+00, 3e+01]
  QObjective range [8e+00, 8e+00]
  Bounds range     [1e+00, 1e+00]
  RHS range        [0e+00, 0e+00]
Found heuristic solution: objective 0.0000000
Found heuristic solution: objective -5814.000000
Found heuristic solution: objective -21190.00000
Found heuristic solution: objective -21244.00000
Presolve removed 0 rows and 4 columns
Presolve time: 0.40s
Presolved: 15840 rows, 19283 columns, 47520 nonzeros
Variable types: 0 continuous, 19283 integer (19283 binary)

Root relaxation: objective -2.968500e+04, 4678 iterations, 0.07 seconds (0.03 work units)

    Nodes    |    Current Node    |     Objective Bounds      |     Work
 Expl Unexpl |  Obj  Depth IntInf | Incumbent    BestBd   Gap | It/Node Time

     0     0 -29685.000    0 3443 -21244.000 -29685.000  39.7%     -    0s
     0     0 -27990.000    0 4255 -21244.000 -27990.000  31.8%     -    1s
     0     0 -27526.000    0 4526 -21244.000 -27526.000  29.6%     -    1s
     0     0 -27509.000    0 4541 -21244.000 -27509.000  29.5%     -    2s
     0     0 -27352.000    0 4640 -21244.000 -27352.000  28.8%     -    2s
     0     0 -27352.000    0 4603 -21244.000 -27352.000  28.8%     -    3s
     0     2 -27352.000    0 4586 -21244.000 -27352.000  28.8%     -    4s
    14    16 -27279.000    7 4650 -21244.000 -27341.000  28.7%   331    5s
   243   245 -26192.000  122 5549 -21244.000 -27341.000  28.7%   105   10s
   491   493 -25135.000  246 6137 -21244.000 -27341.000  28.7%  92.6   15s
   714   716 -24301.000  357 6449 -21244.000 -27341.000  28.7%  85.1   20s
   864   866 -23764.000  432 6584 -21244.000 -27341.000  28.7%  79.4   25s
   955   957 -23452.000  478 6705 -21244.000 -27341.000  28.7%  76.5   30s
  1125  1127 -22919.000  563 6865 -21244.000 -27341.000  28.7%  73.1   35s
H 1352  1352                    -21250.00000 -27341.000  28.7%  69.4   38s
  1420  1422 -22167.000  712 6688 -21250.000 -27341.000  28.7%  68.5   40s
H 1430  1430                    -21258.00000 -27341.000  28.6%  68.3   40s
H 1456  1456                    -21262.00000 -27341.000  28.6%  68.0   40s
H 1482  1482                    -21270.00000 -27341.000  28.5%  67.9   41s
H 1508  1508                    -21296.00000 -27341.000  28.4%  67.7   41s
H 1534  1534                    -21310.00000 -27341.000  28.3%  67.4   42s
H 1560  1560                    -21318.00000 -27341.000  28.3%  67.3   42s
H 1586  1586                    -21330.00000 -27341.000  28.2%  67.0   43s
H 1612  1612                    -21334.00000 -27341.000  28.2%  66.8   43s
H 1638  1638                    -21348.00000 -27341.000  28.1%  66.6   44s
H 1664  1664                    -21350.00000 -27341.000  28.1%  66.2   44s
H 1690  1690                    -21364.00000 -27341.000  28.0%  65.8   44s
  1692  1694 -21508.500  849 6320 -21364.000 -27341.000  28.0%  65.8   45s
H 1716  1716                    -21386.00000 -27341.000  27.8%  65.3   45s
H 1742  1742                    -21396.00000 -27341.000  27.8%  64.9   45s
H 1769  1748                    -21400.00000 -27341.000  27.8%  64.3   46s
  1798  1746 -24627.000  315 3443 -21400.000 -27341.000  27.8%  63.7   51s
  1802  1749 -21594.500  827 5603 -21400.000 -25915.481  21.1%  63.6   56s
  1808  1753 -25350.654  126 6359 -21400.000 -25350.654  18.5%  63.4   64s
  1809  1754 -25157.000  244 6648 -21400.000 -25210.178  17.8%  63.4   76s
  1810  1754 -24259.000  363 7074 -21400.000 -25167.253  17.6%  63.3   88s
  1811  1755 -25157.172   57 7084 -21400.000 -25157.172  17.6%  63.3   93s
  1812  1756 -23284.000  503 7258 -21400.000 -25153.443  17.5%  63.3   96s
  1815  1758 -23377.000  488 7372 -21400.000 -25150.867  17.5%  63.1  100s
  1822  1762 -24805.618   19 7766 -21400.000 -24805.618  15.9%  62.9  174s
  1823  1763 -22691.000  607 8343 -21400.000 -24693.155  15.4%  62.9  237s
  1824  1764 -21451.000  865 8529 -21400.000 -24648.637  15.2%  62.8  285s
  1825  1764 -22937.000  560 8958 -21400.000 -24631.914  15.1%  62.8  301s
  1826  1765 -24626.878  146 9151 -21400.000 -24626.878  15.1%  62.8  310s
  1827  1766 -23964.000  403 9206 -21400.000 -24625.066  15.1%  62.7  315s
  1828  1766 -21838.500  776 9333 -21400.000 -24624.029  15.1%  62.7  320s
  1830  1768 -24232.000  367 9322 -21400.000 -24622.975  15.1%  62.6  326s
  1834  1770 -21588.500  828 9422 -21400.000 -24622.728  15.1%  62.5  331s
  1835  1771 -21967.000  752 9674 -21400.000 -24337.886  13.7%  62.5  482s
  1836  1772 -24279.777  313 10109 -21400.000 -24279.777  13.5%  62.4  596s
  1837  1772 -23077.000  535 10653 -21400.000 -24233.682  13.2%  62.4  707s
  1838  1773 -24217.791  163 10770 -21400.000 -24217.791  13.2%  62.4  753s
  1839  1774 -24212.253  156 11069 -21400.000 -24212.253  13.1%  62.3  779s
  1840  1774 -23424.000  482 11120 -21400.000 -24209.216  13.1%  62.3  797s
  1841  1775 -24207.601  268 11217 -21400.000 -24207.601  13.1%  62.3  810s
  1842  1776 -21630.500  820 11288 -21400.000 -24207.228  13.1%  62.2  815s
  1844  1777 -23099.000  532 11344 -21400.000 -24207.020  13.1%  62.2  821s
  1847  1779 -24206.989   10 11388 -21400.000 -24206.989  13.1%  62.1  826s
  1848  1780 -21835.000  777 11664 -21400.000 -24000.068  12.1%  62.0 1065s
  1849  1780 -23957.002  219 12024 -21400.000 -23957.002  11.9%  62.0 1224s
  1850  1781 -23910.679  385 12356 -21400.000 -23910.679  11.7%  62.0 1391s
  1851  1782 -23898.473  347 12677 -21400.000 -23898.473  11.7%  61.9 1467s
  1852  1782 -23894.352  262 12832 -21400.000 -23894.352  11.7%  61.9 1507s
  1853  1783 -21835.000  777 12946 -21400.000 -23892.177  11.6%  61.9 1534s
  1854  1784 -21510.000  847 13073 -21400.000 -23891.493  11.6%  61.8 1546s
  1855  1784 -22063.000  735 13147 -21400.000 -23891.271  11.6%  61.8 1552s
  1856  1785 -23891.122  325 13174 -21400.000 -23891.122  11.6%  61.8 1556s
  1858  1786 -22155.000  716 13194 -21400.000 -23891.008  11.6%  61.7 1561s
  1860  1788 -23890.993  367 13204 -21400.000 -23890.993  11.6%  61.6 1568s
  1861  1788 -23729.137  117 13877 -21400.000 -23729.137  10.9%  61.6 1915s
  1862  1789 -23699.291  180 14211 -21400.000 -23699.291  10.7%  61.6 2114s
  1863  1790 -23452.000  478 14607 -21400.000 -23679.092  10.6%  61.5 2290s
  1864  1790 -23673.710  300 14901 -21400.000 -23673.710  10.6%  61.5 2361s
  1865  1791 -23672.073  305 14997 -21400.000 -23672.073  10.6%  61.5 2389s
  1866  1792 -23671.406  326 15016 -21400.000 -23671.406  10.6%  61.4 2406s
  1867  1792 -22599.000  627 15093 -21400.000 -23671.179  10.6%  61.4 2414s
  1868  1793 -22794.000  587 15111 -21400.000 -23671.096  10.6%  61.4 2421s
  1870  1794 -21451.000  865 15086 -21400.000 -23671.040  10.6%  61.3 2426s
  1871  1795 -23670.994   98 15089 -21400.000 -23670.994  10.6%  61.3 2430s
  1874  1797 -23591.459  424 14894 -21400.000 -23591.459  10.2%  61.2 2751s
  1875  1798 -21737.500  796 15183 -21400.000 -23575.014  10.2%  61.1 2931s
  1876  1798 -23092.000  533 15365 -21400.000 -23571.480  10.1%  61.1 2990s
  1877  1799 -21843.000  775 15441 -21400.000 -23570.742  10.1%  61.1 3011s
  1878  1800 -22183.000  710 15460 -21400.000 -23570.385  10.1%  61.0 3025s
  1879  1800 -23570.248   78 15495 -21400.000 -23570.248  10.1%  61.0 3036s
  1881  1802 -23570.205  433 15485 -21400.000 -23570.205  10.1%  60.9 3042s
  1883  1803 -23570.190  139 15509 -21400.000 -23570.190  10.1%  60.9 3045s
  1885  1804 -23570.180  248 15582 -21400.000 -23570.180  10.1%  60.8 3051s
  1886  1805 -23507.349  363 15467 -21400.000 -23507.349  9.85%  60.8 3386s
  1887  1806 -23494.682  279 15797 -21400.000 -23494.682  9.79%  60.7 3567s
  1888  1806 -22792.000  588 15888 -21400.000 -23492.518  9.78%  60.7 3624s
  1889  1807 -23491.786  246 15877 -21400.000 -23491.786  9.77%  60.7 3648s
  1890  1808 -23491.459  195 15897 -21400.000 -23491.459  9.77%  60.6 3662s
  1891  1808 -23491.395  109 15943 -21400.000 -23491.395  9.77%  60.6 3669s
  1892  1809 -22896.000  569 15962 -21400.000 -23491.383  9.77%  60.6 3672s
  1894  1810 -23491.373   91 15966 -21400.000 -23491.373  9.77%  60.5 3678s
  1895  1811 -22643.000  621 15871 -21400.000 -23448.887  9.57%  60.5 3986s
  1896  1812 -23440.077  157 16084 -21400.000 -23440.077  9.53%  60.5 4156s
  1897  1812 -23438.379   32 16139 -21400.000 -23438.379  9.53%  60.4 4217s
  1898  1813 -23438.080  315 16163 -21400.000 -23438.080  9.52%  60.4 4231s
  1899  1814 -23437.901   82 16224 -21400.000 -23437.901  9.52%  60.4 4247s
  1900  1814 -22351.000  677 16212 -21400.000 -23437.836  9.52%  60.3 4255s
  1901  1815 -23437.816  245 16196 -21400.000 -23437.816  9.52%  60.3 4260s
  1903  1816 -22438.000  659 16208 -21400.000 -23437.800  9.52%  60.2 4267s
  1904  1817 -22344.000  679 16111 -21400.000 -23396.801  9.33%  60.2 4588s
  1905  1818 -23163.000  522 16246 -21400.000 -23388.758  9.29%  60.2 4764s
  1906  1818 -23387.122  252 16307 -21400.000 -23387.122  9.29%  60.1 4814s
  1907  1819 -23386.683  403 16395 -21400.000 -23386.683  9.28%  60.1 4834s
  1908  1820 -23386.588  126 16414 -21400.000 -23386.588  9.28%  60.1 4843s
  1909  1820 -23386.553  244 16418 -21400.000 -23386.553  9.28%  60.0 4849s
  1910  1821 -23386.544  363 16435 -21400.000 -23386.544  9.28%  60.0 4852s
  1911  1822 -23386.542   57 16436 -21400.000 -23386.542  9.28%  60.0 4856s
  1912  1822 -23284.000  503 16342 -21400.000 -23355.019  9.14%  59.9 5175s
  1913  1823 -21683.500  807 16431 -21400.000 -23348.797  9.11%  59.9 5329s
  1914  1824 -23347.483  107 16468 -21400.000 -23347.483  9.10%  59.9 5389s
  1915  1824 -23347.161  488 16519 -21400.000 -23347.161  9.10%  59.9 5413s
  1916  1825 -23347.065  228 16553 -21400.000 -23347.065  9.10%  59.8 5422s
  1917  1826 -23347.028  301 16563 -21400.000 -23347.028  9.10%  59.8 5426s
  1918  1826 -21661.500  813 16590 -21400.000 -23347.010  9.10%  59.8 5430s
  1920  1828 -23319.286  392 16460 -21400.000 -23319.286  8.97%  59.7 5739s
  1921  1828 -23314.010  326 16523 -21400.000 -23314.010  8.94%  59.7 5884s
  1922  1829 -23312.992   19 16593 -21400.000 -23312.992  8.94%  59.6 5935s
  1923  1830 -22691.000  607 16661 -21400.000 -23312.707  8.94%  59.6 5952s
  1924  1830 -21451.000  865 16665 -21400.000 -23312.537  8.94%  59.6 5968s
  1925  1831 -22937.000  560 16679 -21400.000 -23312.455  8.94%  59.5 5977s
  1926  1832 -23312.433  146 16708 -21400.000 -23312.433  8.94%  59.5 5981s
  1927  1832 -23312.416  403 16711 -21400.000 -23312.416  8.94%  59.5 5985s
  1929  1834 -23119.000  529 16709 -21400.000 -23312.410  8.94%  59.4 5992s
  1930  1834 -23292.723  367 16548 -21400.000 -23292.723  8.84%  59.4 6250s
  1931  1835 -21867.000  769 16627 -21400.000 -23288.550  8.82%  59.4 6383s
  1932  1836 -23287.853  401 16639 -21400.000 -23287.853  8.82%  59.3 6416s
  1933  1836 -22656.000  616 16665 -21400.000 -23287.618  8.82%  59.3 6436s
  1934  1837 -21588.500  828 16695 -21400.000 -23287.548  8.82%  59.3 6444s
  1935  1838 -21967.000  752 16713 -21400.000 -23287.537  8.82%  59.2 6447s
  1936  1838 -23287.532  313 16715 -21400.000 -23287.532  8.82%  59.2 6450s
  1937  1839 -23077.000  535 16612 -21400.000 -23268.793  8.73%  59.2 6720s
  1938  1840 -23264.124  163 16713 -21400.000 -23264.124  8.71%  59.1 6857s
  1939  1840 -23263.331  156 16773 -21400.000 -23263.331  8.71%  59.1 6896s
  1940  1841 -23263.155  482 16812 -21400.000 -23263.155  8.71%  59.1 6911s
  1941  1842 -23263.091  268 16825 -21400.000 -23263.091  8.71%  59.0 6919s
  1942  1842 -21630.500  820 16839 -21400.000 -23263.066  8.71%  59.0 6923s
  1943  1843 -23263.061  143 16849 -21400.000 -23263.061  8.71%  59.0 6926s
  1945  1844 -22580.500  631 16728 -21400.000 -23247.928  8.64%  58.9 7178s
  1946  1845 -22288.000  689 16827 -21400.000 -23243.991  8.62%  58.9 7298s
  1947  1846 -23243.243   10 16928 -21400.000 -23243.243  8.61%  58.9 7333s
  1948  1846 -21835.000  777 16936 -21400.000 -23243.066  8.61%  58.8 7346s
  1949  1847 -23243.014  219 16941 -21400.000 -23243.014  8.61%  58.8 7352s
  1950  1848 -23242.997  385 16964 -21400.000 -23242.997  8.61%  58.8 7356s
  1952  1849 -23242.989  262 16965 -21400.000 -23242.989  8.61%  58.7 7360s
  1953  1850 -21835.000  777 16798 -21400.000 -23228.827  8.55%  58.7 7608s
  1954  1850 -21510.000  847 16855 -21400.000 -23225.654  8.53%  58.7 7727s
  1955  1851 -22063.000  735 16898 -21400.000 -23225.018  8.53%  58.6 7768s
  1956  1852 -23224.843  325 16935 -21400.000 -23224.843  8.53%  58.6 7787s
  1957  1852 -21648.500  815 16974 -21400.000 -23224.768  8.53%  58.6 7795s
  1958  1853 -22155.000  716 17004 -21400.000 -23224.749  8.53%  58.5 7800s
  1961  1855 -23211.338  117 16825 -21400.000 -23211.338  8.46%  58.4 8041s
  1962  1856 -23208.376  180 16907 -21400.000 -23208.376  8.45%  58.4 8162s

Cutting planes:
  Gomory: 105
  MIR: 614
  Flow cover: 6074
  Zero half: 2237
  Mod-K: 131
  RLT: 676
  BQP: 1019

Explored 1962 nodes (3707337 simplex iterations) in 8192.02 seconds (12929.65 work units)
Thread count was 1 (of 72 available processors)

Solution count 10: -21400 -21396 -21386 ... -21310

Time limit reached
Best objective -2.140000000000e+04, best bound -2.320800000000e+04, gap 8.4486%

User-callback calls 21558, time in user-callback 0.12 sec

BQP_SOLUTION, 3447, 15846, -7559.000000, 8192.016261, 1, 1, 1, -1, -1, 1, -1, -1, -1, -1, 1, 1, 1, -1, 1, 1, 1, -1, -1, 1, -1, 1, 1, -1, 1, 1, 1, -1, 1, -1, -1, 1, -1, -1, 1, -1, 1, -1, -1, 1, -1, 1, -1, -1, -1, -1, 1, 1, -1, 1, -1, 1, -1, 1, -1, -1, 1, -1, 1, 1, 1, 1, 1, 1, -1, 1, -1, -1, -1, -1, 1, 1, 1, 1, 1, 1, -1, 1, -1, 1, -1, 1, 1, 1, 1, 1, -1, 1, -1, 1, -1, -1, -1, -1, 1, 1, -1, 1, 1, -1, -1, 1, -1, -1, 1, -1, 1, 1, 1, 1, -1, 1, 1, 1, -1, -1, -1, -1, 1, 1, 1, -1, 1, 1, 1, -1, -1, -1, -1, -1, -1, 1, 1, 1, -1, 1, -1, 1, 1, -1, -1, -1, -1, 1, -1, 1, 1, -1, -1, 1, -1, -1, -1, 1, 1, 1, -1, -1, 1, -1, 1, 1, -1, -1, 1, -1, 1, -1, -1, 1, 1, -1, -1, 1, -1, -1, -1, 1, -1, 1, -1, 1, 1, -1, -1, -1, 1, -1, -1, 1, 1, 1, -1, -1, -1, 1, -1, -1, 1, -1, -1, -1, -1, 1, -1, 1, -1, 1, -1, 1, 1, -1, -1, 1, -1, 1, -1, -1, 1, -1, -1, -1, 1, -1, -1, -1, 1, -1, -1, 1, -1, 1, -1, -1, -1, -1, -1, -1, -1, 1, -1, -1, 1, -1, -1, -1, 1, -1, -1, -1, -1, -1, 1, -1, 1, -1, -1, -1, -1, 1, -1, -1, -1, -1, 1, -1, 1, -1, -1, -1, -1, 1, -1, -1, 1, -1, -1, -1, 1, -1, -1, -1, -1, 1, -1, -1, 1, -1, -1, -1, 1, -1, -1, -1, -1, -1, -1, -1, -1, -1, -1, 1, -1, -1, -1, 1, 1, -1, -1, 1, 1, -1, -1, 1, -1, -1, -1, -1, -1, -1, -1, -1, 1, -1, -1, 1, -1, -1, -1, 1, -1, 1, -1, -1, -1, -1, -1, -1, 1, -1, -1, -1, -1, -1, -1, -1, 1, -1, -1, 1, -1, -1, -1, -1, 1, 1, -1, -1, 1, -1, -1, 1, -1, -1, 1, -1, -1, 1, -1, -1, 1, -1, -1, 1, -1, 1, -1, -1, -1, -1, 1, -1, -1, -1, -1, -1, -1, 1, -1, -1, 1, 1, -1, 1, -1, -1, -1, 1, -1, -1, -1, 1, 1, -1, -1, -1, -1, 1, -1, -1, -1, 1, -1, -1, -1, 1, -1, 1, -1, 1, 1, 1, -1, 1, 1, -1, 1, 1, -1, -1, -1, 1, -1, -1, -1, 1, -1, 1, 1, -1, -1, -1, -1, 1, -1, -1, 1, 1, -1, -1, 1, -1, 1, -1, 1, 1, -1, -1, 1, -1, -1, -1, 1, 1, 1, 1, 1, 1, -1, -1, 1, 1, -1, -1, 1, 1, 1, -1, 1, 1, -1, -1, 1, -1, -1, -1, 1, 1, 1, -1, -1, 1, 1, 1, -1, 1, 1, -1, 1, 1, 1, 1, 1, 1, 1, -1, 1, -1, -1, -1, 1, -1, 1, -1, 1, -1, 1, -1, 1, 1, -1, -1, 1, -1, 1, -1, 1, -1, 1, -1, -1, 1, -1, -1, -1, -1, 1, 1, 1, 1, 1, -1, -1, 1, 1, -1, 1, -1, 1, 1, -1, 1, 1, -1, 1, 1, -1, -1, 1, -1, 1, -1, -1, 1, -1, 1, 1, 1, 1, -1, 1, -1, 1, 1, -1, -1, 1, 1, 1, 1, -1, 1, -1, 1, -1, 1, 1, 1, -1, -1, 1, -1, -1, -1, -1, 1, 1, -1, 1, -1, -1, 1, 1, -1, -1, 1, -1, -1, 1, 1, 1, -1, 1, 1, 1, 1, 1, 1, -1, 1, 1, -1, 1, -1, -1, 1, 1, 1, -1, 1, -1, -1, 1, -1, 1, 1, 1, 1, 1, 1, 1, 1, -1, -1, 1, -1, 1, -1, 1, 1, 1, 1, 1, 1, 1, -1, 1, -1, 1, -1, -1, -1, 1, 1, -1, 1, 1, -1, 1, -1, 1, 1, -1, 1, 1, 1, 1, 1, 1, -1, 1, 1, 1, -1, -1, 1, 1, 1, 1, 1, 1, -1, -1, -1, -1, -1, -1, -1, 1, 1, -1, 1, 1, -1, 1, 1, 1, -1, -1, 1, 1, -1, 1, 1, 1, -1, 1, -1, -1, -1, -1, 1, 1, 1, -1, 1, 1, -1, 1, -1, 1, -1, 1, 1, 1, 1, -1, 1, -1, -1, 1, -1, 1, -1, 1, 1, -1, 1, 1, 1, 1, 1, 1, -1, 1, -1, 1, 1, 1, 1, 1, 1, 1, 1, 1, -1, -1, -1, -1, 1, -1, 1, 1, -1, 1, -1, 1, -1, -1, -1, 1, 1, 1, 1, 1, 1, 1, 1, 1, -1, -1, -1, 1, 1, 1, -1, 1, 1, 1, 1, 1, -1, 1, -1, -1, 1, -1, 1, -1, 1, 1, 1, 1, -1, -1, -1, -1, 1, 1, 1, 1, 1, 1, 1, 1, 1, -1, -1, -1, 1, 1, -1, 1, 1, 1, 1, 1, 1, -1, -1, -1, 1, -1, 1, 1, 1, 1, 1, 1, 1, 1, -1, -1, 1, 1, -1, -1, 1, 1, -1, 1, 1, 1, -1, 1, 1, 1, 1, 1, 1, 1, 1, 1, -1, -1, -1, 1, 1, -1, -1, 1, 1, 1, 1, 1, 1, -1, -1, 1, -1, -1, -1, 1, 1, -1, 1, 1, 1, -1, -1, 1, 1, -1, -1, 1, 1, 1, -1, 1, -1, -1, -1, 1, -1, 1, -1, 1, 1, -1, 1, -1, -1, 1, -1, 1, -1, -1, 1, 1, 1, 1, 1, 1, -1, 1, 1, -1, 1, -1, -1, 1, -1, -1, 1, 1, -1, 1, 1, 1, -1, -1, 1, 1, -1, -1, -1, 1, -1, 1, 1, 1, 1, -1, 1, -1, 1, -1, 1, 1, -1, 1, 1, 1, -1, -1, -1, 1, -1, -1, -1, -1, -1, 1, 1, 1, 1, -1, -1, -1, 1, -1, -1, -1, -1, 1, 1, 1, 1, -1, 1, 1, -1, -1, 1, -1, 1, 1, 1, 1, 1, -1, 1, -1, 1, -1, -1, 1, -1, 1, 1, 1, -1, 1, 1, -1, -1, -1, -1, -1, 1, 1, 1, -1, 1, 1, -1, -1, 1, -1, -1, -1, 1, 1, 1, -1, 1, 1, -1, -1, -1, -1, -1, 1, 1, 1, -1, 1, -1, 1, 1, -1, 1, -1, -1, -1, -1, 1, 1, -1, 1, 1, -1, 1, -1, -1, -1, 1, 1, 1, -1, -1, -1, 1, -1, 1, 1, -1, -1, -1, -1, 1, 1, -1, 1, 1, -1, -1, 1, -1, -1, -1, 1, -1, 1, -1, -1, 1, -1, 1, -1, 1, -1, 1, -1, -1, -1, -1, -1, 1, -1, -1, 1, -1, -1, -1, -1, -1, -1, -1, -1, 1, -1, 1, -1, 1, -1, 1, 1, -1, 1, -1, -1, 1, 1, -1, -1, 1, -1, 1, -1, 1, -1, -1, -1, 1, -1, 1, 1, 1, -1, 1, -1, -1, -1, -1, -1, 1, -1, -1, 1, -1, 1, 1, 1, -1, -1, -1, 1, -1, 1, -1, 1, -1, 1, -1, -1, -1, -1, -1, -1, -1, 1, -1, 1, -1, 1, 1, -1, -1, -1, 1, -1, 1, 1, -1, 1, 1, 1, -1, -1, 1, 1, -1, -1, -1, 1, -1, 1, -1, 1, 1, -1, 1, -1, 1, 1, -1, 1, 1, -1, -1, 1, -1, 1, -1, 1, -1, -1, -1, 1, -1, -1, -1, 1, 1, -1, 1, -1, -1, -1, 1, -1, 1, -1, -1, 1, 1, -1, 1, -1, 1, -1, -1, -1, 1, -1, -1, 1, 1, -1, 1, -1, 1, -1, -1, -1, 1, -1, -1, 1, 1, 1, -1, 1, 1, 1, -1, 1, 1, -1, -1, 1, -1, -1, 1, 1, -1, -1, -1, 1, 1, -1, 1, 1, -1, 1, -1, 1, 1, -1, -1, 1, 1, -1, -1, 1, -1, 1, -1, 1, 1, 1, 1, 1, 1, -1, 1, 1, -1, 1, -1, 1, 1, 1, 1, 1, 1, -1, 1, 1, -1, 1, 1, 1, 1, -1, 1, 1, 1, 1, -1, -1, 1, 1, -1, 1, 1, 1, -1, 1, 1, 1, -1, 1, 1, 1, 1, 1, -1, -1, 1, 1, 1, 1, 1, 1, 1, 1, -1, 1, 1, -1, 1, 1, 1, -1, 1, 1, -1, 1, 1, 1, -1, 1, 1, -1, 1, 1, -1, 1, -1, 1, 1, -1, 1, -1, 1, 1, 1, 1, -1, 1, 1, 1, -1, -1, -1, 1, 1, -1, 1, 1, -1, -1, 1, 1, 1, 1, -1, 1, 1, 1, 1, 1, 1, 1, -1, -1, 1, -1, 1, 1, 1, 1, 1, 1, -1, 1, 1, 1, -1, 1, -1, 1, 1, 1, 1, -1, 1, -1, 1, -1, 1, -1, 1, 1, -1, 1, -1, 1, -1, -1, 1, -1, 1, -1, -1, -1, -1, 1, 1, -1, 1, -1, 1, -1, 1, 1, -1, 1, 1, 1, 1, 1, -1, -1, -1, 1, 1, -1, 1, 1, -1, -1, 1, 1, 1, -1, -1, 1, 1, 1, 1, 1, -1, -1, 1, 1, -1, -1, 1, -1, -1, 1, 1, 1, -1, -1, 1, 1, -1, -1, 1, -1, 1, 1, -1, 1, -1, -1, -1, 1, -1, -1, 1, -1, -1, 1, 1, 1, 1, -1, 1, 1, -1, -1, 1, -1, -1, 1, 1, -1, 1, -1, -1, 1, -1, -1, 1, -1, 1, 1, 1, 1, 1, -1, 1, 1, -1, -1, -1, -1, 1, 1, 1, 1, -1, -1, 1, -1, -1, -1, 1, 1, 1, 1, 1, -1, 1, 1, -1, -1, 1, 1, -1, 1, 1, -1, 1, 1, 1, 1, 1, -1, -1, 1, -1, 1, 1, 1, 1, -1, 1, 1, 1, -1, 1, 1, -1, 1, 1, 1, 1, 1, 1, -1, 1, -1, 1, 1, -1, 1, 1, 1, 1, 1, 1, 1, 1, -1, -1, 1, 1, -1, 1, 1, 1, -1, 1, 1, -1, -1, -1, 1, -1, 1, 1, 1, 1, 1, 1, -1, 1, -1, -1, 1, -1, 1, 1, 1, 1, 1, -1, 1, -1, -1, -1, 1, 1, -1, 1, -1, 1, 1, 1, 1, -1, -1, -1, -1, -1, 1, 1, -1, 1, 1, -1, 1, -1, 1, -1, 1, 1, -1, 1, -1, 1, 1, 1, -1, 1, 1, -1, 1, -1, 1, 1, -1, 1, 1, -1, 1, -1, -1, 1, -1, 1, -1, 1, -1, 1, 1, -1, -1, 1, -1, 1, 1, 1, 1, -1, 1, 1, 1, -1, 1, 1, -1, 1, 1, -1, 1, -1, 1, 1, 1, -1, 1, -1, 1, 1, -1, -1, 1, 1, -1, 1, -1, 1, 1, 1, -1, 1, 1, 1, 1, -1, 1, 1, 1, -1, 1, -1, 1, 1, -1, 1, 1, -1, 1, 1, -1, 1, 1, -1, 1, -1, -1, 1, 1, 1, 1, 1, -1, 1, -1, -1, 1, 1, -1, 1, 1, -1, 1, 1, -1, 1, 1, 1, 1, -1, -1, 1, 1, -1, 1, 1, 1, -1, 1, -1, 1, 1, -1, 1, 1, -1, 1, 1, 1, -1, 1, -1, -1, 1, -1, 1, 1, -1, 1, -1, 1, -1, 1, -1, 1, -1, 1, 1, 1, -1, 1, 1, -1, 1, -1, -1, 1, 1, -1, 1, -1, 1, 1, 1, -1, 1, -1, 1, -1, -1, 1, -1, 1, -1, 1, -1, -1, 1, 1, -1, -1, 1, -1, 1, -1, 1, -1, -1, -1, 1, 1, -1, -1, 1, -1, 1, 1, -1, 1, -1, -1, 1, -1, 1, -1, -1, -1, -1, 1, -1, 1, 1, -1, 1, -1, 1, -1, 1, 1, -1, -1, 1, -1, 1, -1, -1, 1, -1, 1, -1, -1, 1, -1, 1, -1, 1, -1, 1, -1, 1, 1, -1, -1, 1, -1, 1, 1, -1, -1, -1, 1, 1, 1, -1, -1, -1, -1, 1, -1, 1, -1, -1, -1, 1, -1, -1, 1, 1, -1, 1, -1, 1, -1, 1, 1, -1, -1, -1, 1, -1, 1, -1, 1, -1, -1, -1, 1, -1, 1, -1, 1, -1, 1, 1, -1, 1, 1, 1, 1, -1, -1, -1, -1, -1, 1, 1, 1, -1, -1, 1, 1, -1, -1, -1, -1, 1, 1, 1, -1, -1, -1, 1, -1, -1, -1, 1, 1, -1, -1, 1, -1, 1, 1, -1, 1, -1, -1, -1, -1, 1, -1, -1, -1, 1, 1, 1, -1, -1, -1, 1, -1, 1, 1, -1, -1, -1, 1, 1, -1, -1, -1, 1, 1, 1, 1, -1, -1, 1, 1, 1, -1, -1, -1, -1, 1, 1, 1, 1, -1, 1, 1, -1, -1, -1, -1, -1, -1, 1, 1, -1, -1, 1, -1, -1, -1, 1, -1, 1, 1, 1, 1, -1, -1, 1, -1, 1, -1, 1, -1, -1, -1, 1, 1, -1, -1, -1, 1, 1, -1, 1, -1, -1, -1, 1, 1, -1, -1, 1, -1, 1, -1, 1, -1, -1, 1, 1, -1, -1, 1, -1, 1, -1, 1, -1, 1, -1, 1, 1, -1, -1, -1, -1, 1, -1, 1, -1, 1, -1, 1, 1, 1, -1, 1, 1, 1, -1, 1, -1, -1, -1, 1, 1, -1, -1, -1, -1, 1, -1, 1, 1, -1, 1, 1, 1, -1, -1, 1, -1, 1, -1, -1, -1, 1, -1, 1, 1, -1, -1, 1, -1, 1, -1, -1, -1, 1, -1, 1, 1, -1, -1, -1, 1, 1, 1, -1, -1, -1, -1, 1, -1, 1, -1, -1, 1, 1, 1, 1, -1, -1, 1, 1, -1, -1, -1, 1, 1, 1, 1, -1, -1, -1, 1, 1, -1, 1, 1, 1, -1, -1, 1, -1, 1, 1, 1, 1, -1, -1, -1, 1, -1, 1, -1, -1, -1, 1, 1, 1, 1, -1, 1, 1, 1, 1, 1, -1, -1, 1, 1, -1, -1, -1, 1, 1, 1, 1, -1, -1, -1, 1, 1, 1, -1, -1, 1, 1, 1, 1, 1, -1, -1, 1, 1, -1, 1, -1, 1, 1, 1, 1, -1, -1, -1, 1, 1, -1, -1, -1, 1, 1, 1, -1, 1, 1, 1, 1, 1, 1, 1, -1, -1, 1, 1, 1, -1, -1, -1, -1, 1, -1, 1, -1, -1, 1, 1, 1, -1, -1, -1, 1, 1, 1, 1, 1, 1, 1, -1, 1, -1, -1, -1, 1, 1, 1, 1, -1, -1, 1, -1, 1, -1, -1, -1, 1, 1, 1, -1, 1, -1, 1, 1, -1, -1, -1, -1, 1, 1, 1, 1, -1, -1, 1, -1, 1, 1, -1, -1, -1, 1, 1, 1, -1, -1, 1, -1, 1, -1, -1, -1, -1, 1, 1, -1, 1, -1, 1, -1, -1, 1, 1, -1, -1, 1, -1, 1, -1, -1, 1, -1, 1, -1, -1, 1, -1, 1, 1, 1, -1, 1, -1, 1, 1, -1, 1, -1, -1, 1, 1, 1, -1, -1, -1, -1, 1, 1, -1, -1, -1, 1, -1, 1, -1, -1, 1, -1, 1, -1, 1, -1, -1, 1, 1, 1, 1, -1, -1, -1, 1, -1, 1, -1, 1, 1, 1, 1, 1, -1, -1, -1, 1, -1, 1, -1, -1, -1, 1, 1, -1, -1, 1, -1, 1, -1, 1, -1, 1, 1, -1, 1, 1, -1, -1, -1, 1, -1, 1, 1, -1, 1, 1, 1, -1, 1, -1, 1, 1, 1, 1, 1, 1, 1, -1, 1, 1, 1, 1, -1, 1, -1, -1, 1, 1, 1, -1, 1, 1, 1, -1, 1, -1, 1, 1, -1, 1, -1, 1, 1, -1, -1, -1, 1, 1, -1, 1, 1, -1, 1, 1, 1, -1, -1, -1, -1, -1, 1, -1, 1, 1, 1, -1, -1, -1, -1, -1, 1, -1, 1, -1, -1, 1, 1, 1, -1, 1, -1, -1, 1, -1, 1, 1, 1, 1, 1, 1, -1, -1, 1, -1, 1, -1, -1, 1, 1, 1, 1, 1, -1, -1, -1, 1, -1, -1, 1, -1, 1, -1, 1, 1, -1, -1, 1, 1, -1, -1, 1, -1, 1, -1, 1, 1, -1, -1, -1, 1, -1, -1, 1, -1, 1, -1, 1, 1, -1, -1, -1, 1, -1, -1, 1, -1, 1, -1, -1, 1, -1, -1, -1, 1, -1, -1, -1, 1, 1, -1, 1, 1, -1, -1, -1, -1, -1, -1, 1, -1, 1, 1, 1, -1, 1, -1, 1, 1, -1, -1, -1, -1, 1, 1, -1, 1, -1, -1, -1, 1, 1, -1, -1, -1, -1, 1, -1, 1, -1, -1, 1, -1, -1, -1, -1, 1, 1, 1, 1, -1, -1, -1, 1, 1, -1, -1, 1, -1, 1, -1, 1, 1, -1, -1, 1, 1, -1, 1, 1, -1, 1, 1, -1, 1, -1, -1, 1, -1, -1, -1, 1, 1, 1, 1, -1, -1, 1, -1, 1, 1, 1, -1, 1, -1, 1, 1, -1, -1, 1, -1, -1, 1, -1, -1, -1, 1, 1, 1, -1, 1, 1, -1, 1, -1, 1, -1, -1, 1, -1, 1, -1, 1, 1, -1, 1, -1, 1, -1, 1, 1, -1, 1, 1, -1, 1, -1, 1, -1, 1, 1, -1, -1, 1, 1, 1, -1, 1, -1, 1, 1, 1, -1, -1, 1, 1, 1, 1, -1, 1, -1, 1, 1, 1, -1, 1, -1, 1, 1, -1, -1, 1, -1, -1, 1, 1, -1, -1, -1, -1, 1, -1, 1, 1, -1, 1, -1, 1, -1, -1, 1, 1, 1, -1, 1, 1, -1, 1, 1, -1, -1, -1, 1, 1, 1, -1, 1, 1, 1, 1, -1, 1, -1, 1, 1, 1, 1, -1, 1, 1, -1, 1, -1, 1, -1, -1, 1, 1, 1, 1, 1, 1, -1, 1, -1, 1, 1, -1, 1, -1, 1, -1, -1, 1, -1, 1, -1, 1, 1, 1, -1, 1, 1, 1, -1, 1, -1, 1, -1, 1, -1, 1, -1, 1, 1, 1, -1, 1, -1, 1, -1, 1, 1, 1, -1, 1, 1, -1, 1, 1, 1, 1, 1, -1, 1, -1, 1, 1, 1, 1, -1, -1, 1, -1, -1, -1, 1, -1, 1, 1, 1, 1, -1, -1, -1, -1, 1, -1, 1, 1, 1, 1, 1, 1, -1, 1, -1, -1, 1, -1, 1, 1, -1, 1, 1, 1, -1, -1, -1, 1, -1, 1, 1, 1, 1, 1, 1, 1, -1, -1, -1, 1, -1, 1, 1, -1, 1, -1, 1, 1, -1, -1, -1, 1, 1, 1, -1, 1, 1, 1, 1, -1, -1, -1, -1, 1, 1, 1, -1, 1, -1, 1, -1, 1, -1, 1, -1, 1, 1, 1, -1, 1, -1, 1, 1, 1, -1, -1, -1, 1, -1, 1, 1, 1, 1, 1, -1, 1, -1, -1, -1, 1, 1, 1, -1, 1, 1, 1, -1, 1, -1, -1, -1, -1, 1, -1, -1, 1, 1, 1, 1, 1, -1, -1, -1, -1, 1, 1, -1, 1, 1, -1, 1, 1, -1, -1, -1, -1, 1, 1, -1, -1, 1, -1, 1, -1, -1, 1, -1, -1, 1, -1, -1, 1, 1, -1, -1, 1, -1, 1, 1, -1, 1, -1, 1, 1, 1, -1, 1, -1, 1, -1, -1, 1, 1, -1, -1, 1, 1, -1, -1, 1, 1, -1, -1, 1, 1, -1, -1, 1, 1, -1, 1, 1, -1, 1, -1, 1, 1, -1, 1, 1, 1, 1, -1, 1, 1, 1, 1, 1, 1, -1, 1, 1, 1, -1, -1, -1, 1, 1, 1, -1, 1, -1, -1, 1, 1, -1, 1, 1, 1, 1, 1, -1, 1, -1, -1, 1, 1, -1, 1, 1, 1, 1, 1, -1, 1, -1, -1, 1, -1, -1, 1, 1, 1, 1, 1, 1, -1, -1, -1, 1, -1, -1, 1, -1, 1, 1, 1, 1, 1, -1, -1, 1, 1, -1, -1, 1, 1, 1, 1, -1, 1, -1, 1, 1, 1, -1, -1, 1, 1, 1, 1, -1, 1, -1, -1, 1, 1, -1, -1, 1, -1, -1, 1, 1, 1, 1, -1, 1, -1, -1, 1, -1, -1, 1, 1, 1, -1, -1, 1, -1, -1, -1, 1, -1, 1, 1, -1, 1, -1, -1, 1, 1, -1, -1, 1, 1, -1, -1, 1, 1, 1, -1, 1, -1, 1, -1, 1, 1, -1, -1, 1, 1, -1, 1, -1, -1, -1, -1, 1, 1, -1, -1, 1, 1, 1, 1, -1, -1, 1, -1, 1, 1, -1, -1, 1, 1, 1, -1, -1, -1, -1, -1, -1, 1, -1, 1, 1, 1, 1, -1, 1, -1, -1, 1, 1, 1, -1, -1, -1, 1, -1, 1, -1, 1, -1, -1, 1, 1, -1, -1, -1, 1, -1, 1, -1, -1, 1, -1, 1, -1, -1, -1, 1, 1, -1, 1, -1, -1, 1, -1, 1, 1, 1, -1, 1, 1, -1, 1, 1, -1, 1, -1, 1, 1, -1, 1, -1, 1, -1, 1, -1, 1
BQP_DATA, 3447, 15846, -7559.000000, -9367.000000, -21400.000000, -23208.000000, 8192.016261, 9161, 1962
